benchmarks/bfuzz0/17238175932982264241348723081167188934.smt2
(set-logic QF_FP)
(declare-const x0 (_ FloatingPoint 8 24))
(declare-const x1 (_ FloatingPoint 8 24))
(declare-const x2 (_ FloatingPoint 8 24))
(declare-const x3 (_ FloatingPoint 8 24))
(declare-const x4 (_ FloatingPoint 8 24))
(declare-const x5 (_ FloatingPoint 8 24))
(declare-const x6 (_ FloatingPoint 8 24))
(declare-const x7 (_ FloatingPoint 8 24))
(declare-const x8 (_ FloatingPoint 8 24))
(declare-const x9 (_ FloatingPoint 8 24))
(declare-const x10 (_ FloatingPoint 8 24))
(declare-const x11 (_ FloatingPoint 8 24))
(declare-const x12 (_ FloatingPoint 8 24))
(declare-const x13 (_ FloatingPoint 8 24))
(declare-const x14 (_ FloatingPoint 8 24))
(declare-const x15 (_ FloatingPoint 8 24))
(declare-const x16 (_ FloatingPoint 8 24))
(declare-const x17 (_ FloatingPoint 8 24))
(declare-const x18 (_ FloatingPoint 8 24))
(declare-const x19 (_ FloatingPoint 8 24))
(declare-const x20 (_ FloatingPoint 8 24))
(declare-const x21 (_ FloatingPoint 8 24))
(declare-const x22 (_ FloatingPoint 8 24))
(declare-const x23 (_ FloatingPoint 8 24))
(assert (fp.lt (fp.neg (fp.sub RNE x14 x14)) (fp.neg (fp.add RNE x7 x19))))
(assert (fp.lt (fp.div RNE (fp.div RNE x11 x21) (fp.neg x21)) (fp.add RNE (fp.add RNE x3 x2) (fp.mul RNE x12 x19))))
(assert (fp.gt (fp.neg (fp.sub RNE x19 x3)) (fp.div RNE (fp.add RNE x6 x12) (fp.sub RNE x20 x6))))
(assert (fp.gt (fp.mul RNE (fp.mul RNE x18 x2) (fp.neg x10)) (fp.add RNE (fp.neg x23) (fp.neg x3))))
(check-sat)
