db/data/17238175932982264241348723081167188934.z3.out
sat
-------------------
16.899828867
